NAME: a280
DIMENSION: 21
EDGE_WEIGHT_TYPE: EUC_2D
NODE_COORD_SECTION
1 288 149
2 288 129
3 270 133
4 256 141
5 256 157
6 246 157
7 236 169
8 228 169
9 228 161
10 220 169
11 212 169
12 204 169
13 196 169
14 188 169
15 196 161
16 188 145
17 172 145
18 164 145
19 156 145
20 148 145
21 140 145
ACCEPTED_PROBABILITIES
0.0
0.13
0.15
0.21
0.21
0.28
0.36
0.4
0.39
0.46
0.51
0.55
0.6
0.65
0.6
0.64
0.74
0.8
0.85
0.9
0.95
OUTSOURCING_COSTS
0.0
1.25
1.5
2.06
2.06
2.69
3.5
3.94
3.81
4.44
4.94
5.38
5.88
6.38
5.81
6.25
7.25
7.75
8.25
8.75
9.25
